50
0 1 0.48 0.27
0 2 0.58 0.3
0 3 0.56 0.28
0 4 0.64 0.24
0 5 0.56 0.19
0 6 0.52 0.22
0 7 0.6 0.29
0 8 0.4 0.23
0 9 0.36 0.26
0 10 0.61 0.18
0 11 0.66 0.23
0 12 0.87 0.22
0 13 0.7 0.32
0 14 0.42 0.34
0 15 0.64 0.3
0 16 0.8 0.25
0 17 0.37 0.18
0 18 0.58 0.23
0 19 0.66 0.22
0 20 0.72 0.32
0 21 0.54 0.3
0 22 0.36 0.2
0 23 0.39 0.08
0 24 0.59 0.2
0 25 0.8 0.24
0 26 0.6 0.24
0 27 0.54 0.2
0 28 0.87 0.19
0 29 0.68 0.3
0 30 0.7 0.25
0 31 0.7 0.3
0 32 0.75 0.18
0 33 0.51 0.2
0 34 0.5 0.21
0 35 0.45 0.15
0 36 0.54 0.24
0 37 0.74 0.14
0 38 0.7 0.24
0 39 0.6 0.2
0 40 0.58 0.14
0 41 0.76 0.23
0 42 0.48 0.28
0 43 0.6 0.18
0 44 0.55 0.2
0 45 0.82 0.22
0 46 0.48 0.22
0 47 0.58 0.26
0 48 0.84 0.14
0 49 0.73 0.26
1 2 0.69 0.12
1 3 0.63 0.12
1 4 0.42 0.24
1 5 0.42 0.16
1 6 0.68 0.2
1 7 0.64 0.3
1 8 0.62 0.09
1 9 0.62 0.23
1 10 0.54 0.15
1 11 0.58 0.24
1 12 0.72 0.24
1 13 0.76 0.26
1 14 0.62 0.2
1 15 0.83 0.34
1 16 0.59 0.19
1 17 0.78 0.15
1 18 0.5 0.31
1 19 0.54 0.28
1 20 0.78 0.28
1 21 0.52 0.12
1 22 0.49 0.21
1 23 0.48 0.19
1 24 0.28 0.12
1 25 0.52 0.25
1 26 0.66 0.2
1 27 0.42 0.13
1 28 0.76 0.16
1 29 0.79 0.27
1 30 0.53 0.22
1 31 0.5 0.22
1 32 0.34 0.27
1 33 0.58 0.2
1 34 0.63 0.21
1 35 0.48 0.12
1 36 0.65 0.04
1 37 0.67 0.3
1 38 0.5 0.21
1 39 0.7 0.22
1 40 0.72 0.16
1 41 0.73 0.19
1 42 0.54 0.18
1 43 0.49 0.2
1 44 0.46 0.17
1 45 0.52 0.14
1 46 0.77 0.08
1 47 0.56 0.22
1 48 0.68 0.18
1 49 0.67 0.23
2 3 0.72 0.22
2 4 0.58 0.12
2 5 0.27 0.21
2 6 0.51 0.08
2 7 0.36 0.34
2 8 0.36 0.13
2 9 0.59 0.2
2 10 0.63 0.19
2 11 0.62 0.15
2 12 0.68 0.14
2 13 0.38 0.14
2 14 0.44 0.08
2 15 0.68 0.22
2 16 0.5 0.26
2 17 0.72 0.19
2 18 0.54 0.26
2 19 0.32 0.25
2 20 0.55 0.24
2 21 0.53 0.24
2 22 0.38 0.12
2 23 0.46 0.22
2 24 0.46 0.18
2 25 0.52 0.16
2 26 0.46 0.14
2 27 0.56 0.2
2 28 0.62 0.21
2 29 0.59 0.31
2 30 0.62 0.23
2 31 0.42 0.17
2 32 0.77 0.25
2 33 0.53 0.25
2 34 0.71 0.22
2 35 0.26 0.17
2 36 0.12 0.08
2 37 0.62 0.24
2 38 0.57 0.25
2 39 0.44 0.23
2 40 0.45 0.18
2 41 0.55 0.22
2 42 0.5 0.26
2 43 0.62 0.27
2 44 0.43 0.22
2 45 0.54 0.2
2 46 0.3 0.12
2 47 0.38 0.24
2 48 0.64 0.16
2 49 0.48 0.23
3 4 0.7 0.24
3 5 0.49 0.2
3 6 0.44 0.14
3 7 0.44 0.3
3 8 0.5 0.19
3 9 0.35 0.18
3 10 0.32 0.1
3 11 0.57 0.19
3 12 0.57 0.18
3 13 0.48 0.16
3 14 0.64 0.26
3 15 0.6 0.24
3 16 0.24 0.14
3 17 0.56 0.1
3 18 0.62 0.34
3 19 0.56 0.22
3 20 0.81 0.24
3 21 0.6 0.24
3 22 0.52 0.18
3 23 0.6 0.24
3 24 0.4 0.24
3 25 0.34 0.16
3 26 0.3 0.08
3 27 0.52 0.12
3 28 0.62 0.23
3 29 0.57 0.22
3 30 0.64 0.17
3 31 0.73 0.25
3 32 0.76 0.24
3 33 0.66 0.27
3 34 0.58 0.28
3 35 0.5 0.19
3 36 0.6 0.14
3 37 0.51 0.18
3 38 0.59 0.16
3 39 0.5 0.18
3 40 0.47 0.26
3 41 0.68 0.29
3 42 0.66 0.26
3 43 0.74 0.19
3 44 0.66 0.2
3 45 0.71 0.26
3 46 0.48 0.18
3 47 0.59 0.12
3 48 0.6 0.22
3 49 0.59 0.18
4 5 0.54 0.22
4 6 0.26 0.18
4 7 0.8 0.4
4 8 0.24 0.17
4 9 0.42 0.28
4 10 0.51 0.2
4 11 0.54 0.17
4 12 0.6 0.16
4 13 0.48 0.18
4 14 0.68 0.2
4 15 0.6 0.26
4 16 0.54 0.28
4 17 0.52 0.2
4 18 0.71 0.36
4 19 0.28 0.14
4 20 0.38 0.24
4 21 0.66 0.28
4 22 0.64 0.24
4 23 0.54 0.16
4 24 0.56 0.16
4 25 0.74 0.18
4 26 0.7 0.2
4 27 0.48 0.22
4 28 0.34 0.27
4 29 0.76 0.32
4 30 0.48 0.18
4 31 0.4 0.26
4 32 0.5 0.24
4 33 0.43 0.3
4 34 0.6 0.29
4 35 0.76 0.23
4 36 0.46 0.2
4 37 0.5 0.3
4 38 0.69 0.26
4 39 0.5 0.18
4 40 0.45 0.22
4 41 0.4 0.24
4 42 0.64 0.3
4 43 0.5 0.29
4 44 0.72 0.28
4 45 0.83 0.18
4 46 0.44 0.18
4 47 0.54 0.12
4 48 0.26 0.1
4 49 0.68 0.27
5 6 0.65 0.25
5 7 0.63 0.2
5 8 0.63 0.2
5 9 0.49 0.21
5 10 0.57 0.13
5 11 0.65 0.21
5 12 0.54 0.2
5 13 0.54 0.26
5 14 0.71 0.26
5 15 0.44 0.18
5 16 0.25 0.06
5 17 0.69 0.13
5 18 0.63 0.28
5 19 0.58 0.24
5 20 0.56 0.24
5 21 0.46 0.28
5 22 0.36 0.2
5 23 0.69 0.11
5 24 0.54 0.2
5 25 0.76 0.18
5 26 0.56 0.2
5 27 0.72 0.12
5 28 0.6 0.08
5 29 0.6 0.25
5 30 0.59 0.14
5 31 0.44 0.23
5 32 0.76 0.22
5 33 0.72 0.12
5 34 0.62 0.14
5 35 0.36 0.04
5 36 0.39 0.2
5 37 0.39 0.2
5 38 0.3 0.19
5 39 0.57 0.2
5 40 0.54 0.27
5 41 0.56 0.24
5 42 0.66 0.22
5 43 0.71 0.19
5 44 0.56 0.09
5 45 0.42 0.19
5 46 0.57 0.19
5 47 0.39 0.2
5 48 0.37 0.17
5 49 0.58 0.21
6 7 0.56 0.35
6 8 0.4 0.21
6 9 0.16 0.12
6 10 0.52 0.17
6 11 0.38 0.07
6 12 0.52 0.06
6 13 0.5 0.14
6 14 0.75 0.16
6 15 0.51 0.22
6 16 0.64 0.23
6 17 0.65 0.17
6 18 0.81 0.34
6 19 0.46 0.2
6 20 0.62 0.16
6 21 0.48 0.19
6 22 0.5 0.2
6 23 0.49 0.14
6 24 0.69 0.14
6 25 0.74 0.08
6 26 0.48 0.06
6 27 0.41 0.17
6 28 0.5 0.25
6 29 0.66 0.29
6 30 0.6 0.15
6 31 0.61 0.23
6 32 0.56 0.19
6 33 0.32 0.22
6 34 0.34 0.14
6 35 0.53 0.21
6 36 0.39 0.16
6 37 0.72 0.16
6 38 0.56 0.23
6 39 0.56 0.26
6 40 0.71 0.21
6 41 0.4 0.23
6 42 0.77 0.33
6 43 0.66 0.24
6 44 0.58 0.23
6 45 0.72 0.16
6 46 0.57 0.2
6 47 0.56 0.21
6 48 0.5 0.08
6 49 0.57 0.15
7 8 0.66 0.23
7 9 0.46 0.26
7 10 0.51 0.2
7 11 0.48 0.3
7 12 0.46 0.29
7 13 0.74 0.3
7 14 0.69 0.32
7 15 0.5 0.22
7 16 0.67 0.24
7 17 0.56 0.2
7 18 0.54 0.18
7 19 0.62 0.4
7 20 0.66 0.22
7 21 0.6 0.38
7 22 0.74 0.26
7 23 0.63 0.3
7 24 0.5 0.27
7 25 0.74 0.3
7 26 0.58 0.3
7 27 0.35 0.18
7 28 0.78 0.28
7 29 0.66 0.32
7 30 0.66 0.34
7 31 0.56 0.36
7 32 0.51 0.38
7 33 0.4 0.32
7 34 0.53 0.25
7 35 0.5 0.24
7 36 0.48 0.26
7 37 0.64 0.38
7 38 0.54 0.26
7 39 0.68 0.28
7 40 0.62 0.3
7 41 0.46 0.3
7 42 0.55 0.36
7 43 0.95 0.11
7 44 0.73 0.29
7 45 0.44 0.25
7 46 0.42 0.22
7 47 0.7 0.28
7 48 0.61 0.33
7 49 0.76 0.28
8 9 0.56 0.23
8 10 0.62 0.15
8 11 0.62 0.23
8 12 0.73 0.24
8 13 0.53 0.24
8 14 0.44 0.21
8 15 0.55 0.32
8 16 0.55 0.23
8 17 0.76 0.15
8 18 0.55 0.24
8 19 0.52 0.21
8 20 0.41 0.27
8 21 0.52 0.21
8 22 0.74 0.23
8 23 0.38 0.21
8 24 0.58 0.11
8 25 0.66 0.24
8 26 0.73 0.2
8 27 0.52 0.17
8 28 0.54 0.2
8 29 0.76 0.27
8 30 0.36 0.19
8 31 0.52 0.15
8 32 0.74 0.2
8 33 0.67 0.24
8 34 0.72 0.12
8 35 0.58 0.16
8 36 0.48 0.05
8 37 0.57 0.23
8 38 0.66 0.21
8 39 0.42 0.14
8 40 0.43 0.09
8 41 0.6 0.12
8 42 0.46 0.26
8 43 0.4 0.24
8 44 0.62 0.11
8 45 0.72 0.09
8 46 0.56 0.01
8 47 0.71 0.15
8 48 0.5 0.17
8 49 0.84 0.23
9 10 0.67 0.08
9 11 0.54 0.18
9 12 0.68 0.18
9 13 0.34 0.19
9 14 0.66 0.24
9 15 0.48 0.27
9 16 0.59 0.16
9 17 0.6 0.08
9 18 0.76 0.32
9 19 0.38 0.16
9 20 0.46 0.26
9 21 0.48 0.28
9 22 0.53 0.16
9 23 0.53 0.22
9 24 0.7 0.26
9 25 0.69 0.2
9 26 0.64 0.18
9 27 0.57 0.1
9 28 0.56 0.21
9 29 0.56 0.2
9 30 0.5 0.27
9 31 0.45 0.22
9 32 0.46 0.28
9 33 0.48 0.25
9 34 0.5 0.26
9 35 0.5 0.17
9 36 0.55 0.19
9 37 0.82 0.16
9 38 0.4 0.14
9 39 0.4 0.2
9 40 0.64 0.28
9 41 0.56 0.26
9 42 0.8 0.24
9 43 0.64 0.17
9 44 0.5 0.18
9 45 0.78 0.28
9 46 0.62 0.22
9 47 0.68 0.24
9 48 0.66 0.2
9 49 0.68 0.16
10 11 0.53 0.1
10 12 0.63 0.11
10 13 0.75 0.26
10 14 0.69 0.16
10 15 0.36 0.21
10 16 0.45 0.08
10 17 0.24 0.0
10 18 0.61 0.24
10 19 0.47 0.21
10 20 0.58 0.21
10 21 0.44 0.2
10 22 0.54 0.08
10 23 0.63 0.14
10 24 0.6 0.22
10 25 0.44 0.13
10 26 0.62 0.18
10 27 0.65 0.02
10 28 0.56 0.13
10 29 0.25 0.12
10 30 0.71 0.19
10 31 0.5 0.28
10 32 0.63 0.21
10 33 0.74 0.17
10 34 0.5 0.22
10 35 0.69 0.09
10 36 0.68 0.11
10 37 0.46 0.18
10 38 0.46 0.06
10 39 0.73 0.12
10 40 0.68 0.22
10 41 0.51 0.24
10 42 0.52 0.16
10 43 0.6 0.09
10 44 0.59 0.1
10 45 0.46 0.2
10 46 0.5 0.14
10 47 0.27 0.16
10 48 0.69 0.2
10 49 0.27 0.08
11 12 0.62 0.01
11 13 0.7 0.21
11 14 0.48 0.23
11 15 0.62 0.29
11 16 0.7 0.18
11 17 0.29 0.1
11 18 0.54 0.27
11 19 0.47 0.21
11 20 0.54 0.11
11 21 0.26 0.12
11 22 0.64 0.18
11 23 0.62 0.21
11 24 0.74 0.19
11 25 0.56 0.03
11 26 0.7 0.13
11 27 0.52 0.12
11 28 0.56 0.23
11 29 0.75 0.22
11 30 0.5 0.11
11 31 0.68 0.27
11 32 0.24 0.12
11 33 0.46 0.26
11 34 0.43 0.19
11 35 0.7 0.19
11 36 0.5 0.21
11 37 0.52 0.22
11 38 0.42 0.16
11 39 0.75 0.22
11 40 0.65 0.24
11 41 0.42 0.16
11 42 0.51 0.26
11 43 0.62 0.19
11 44 0.62 0.2
11 45 0.86 0.21
11 46 0.44 0.22
11 47 0.28 0.17
11 48 0.28 0.15
11 49 0.38 0.18
12 13 0.71 0.2
12 14 0.52 0.22
12 15 0.78 0.28
12 16 0.33 0.17
12 17 0.5 0.11
12 18 0.71 0.28
12 19 0.68 0.22
12 20 0.48 0.1
12 21 0.6 0.13
12 22 0.74 0.19
12 23 0.5 0.2
12 24 0.54 0.18
12 25 0.3 0.02
12 26 0.58 0.12
12 27 0.72 0.11
12 28 0.36 0.24
12 29 0.58 0.23
12 30 0.42 0.1
12 31 0.75 0.26
12 32 0.38 0.13
12 33 0.52 0.27
12 34 0.44 0.18
12 35 0.61 0.2
12 36 0.7 0.22
12 37 0.44 0.21
12 38 0.74 0.17
12 39 0.38 0.21
12 40 0.7 0.25
12 41 0.64 0.17
12 42 0.52 0.27
12 43 0.68 0.18
12 44 0.68 0.21
12 45 0.66 0.2
12 46 0.68 0.23
12 47 0.66 0.16
12 48 0.47 0.14
12 49 0.36 0.19
13 14 0.67 0.22
13 15 0.56 0.08
13 16 0.62 0.3
13 17 0.76 0.26
13 18 0.59 0.23
13 19 0.36 0.22
13 20 0.54 0.25
13 21 0.71 0.28
13 22 0.76 0.26
13 23 0.62 0.28
13 24 0.68 0.28
13 25 0.69 0.22
13 26 0.54 0.08
13 27 0.84 0.28
13 28 0.44 0.26
13 29 0.71 0.34
13 30 0.29 0.17
13 31 0.56 0.25
13 32 0.62 0.22
13 33 0.82 0.32
13 34 0.65 0.28
13 35 0.64 0.24
13 36 0.5 0.22
13 37 0.6 0.18
13 38 0.74 0.32
13 39 0.56 0.29
13 40 0.63 0.32
13 41 0.35 0.19
13 42 0.56 0.33
13 43 0.7 0.23
13 44 0.55 0.25
13 45 0.56 0.3
13 46 0.46 0.24
13 47 0.59 0.23
13 48 0.51 0.22
13 49 0.48 0.24
14 15 0.48 0.14
14 16 0.48 0.2
14 17 0.77 0.16
14 18 0.79 0.29
14 19 0.6 0.33
14 20 0.74 0.32
14 21 0.58 0.24
14 22 0.54 0.2
14 23 0.81 0.26
14 24 0.79 0.26
14 25 0.73 0.24
14 26 0.59 0.22
14 27 0.34 0.14
14 28 0.73 0.29
14 29 0.75 0.28
14 30 0.66 0.27
14 31 0.48 0.18
14 32 0.68 0.33
14 33 0.56 0.24
14 34 0.7 0.3
14 35 0.66 0.25
14 36 0.5 0.16
14 37 0.58 0.32
14 38 0.62 0.22
14 39 0.56 0.15
14 40 0.39 0.26
14 41 0.39 0.3
14 42 0.69 0.31
14 43 0.7 0.21
14 44 0.74 0.26
14 45 0.47 0.28
14 46 0.56 0.2
14 47 0.53 0.21
14 48 0.55 0.24
14 49 0.58 0.24
15 16 0.47 0.24
15 17 0.42 0.21
15 18 0.48 0.15
15 19 0.78 0.29
15 20 0.54 0.33
15 21 0.71 0.34
15 22 0.6 0.29
15 23 0.76 0.22
15 24 0.64 0.26
15 25 0.7 0.3
15 26 0.64 0.16
15 27 0.48 0.23
15 28 0.54 0.26
15 29 0.61 0.33
15 30 0.56 0.21
15 31 0.42 0.32
15 32 0.73 0.3
15 33 0.51 0.3
15 34 0.38 0.28
15 35 0.44 0.22
15 36 0.56 0.3
15 37 0.34 0.26
15 38 0.64 0.27
15 39 0.47 0.24
15 40 0.48 0.33
15 41 0.5 0.24
15 42 0.62 0.37
15 43 0.68 0.3
15 44 0.53 0.27
15 45 0.74 0.28
15 46 0.54 0.32
15 47 0.63 0.27
15 48 0.34 0.2
15 49 0.61 0.16
16 17 0.69 0.08
16 18 0.38 0.22
16 19 0.47 0.29
16 20 0.67 0.27
16 21 0.44 0.26
16 22 0.58 0.14
16 23 0.44 0.17
16 24 0.31 0.16
16 25 0.55 0.19
16 26 0.54 0.22
16 27 0.6 0.06
16 28 0.69 0.14
16 29 0.7 0.2
16 30 0.7 0.2
16 31 0.69 0.26
16 32 0.71 0.27
16 33 0.61 0.18
16 34 0.75 0.2
16 35 0.35 0.1
16 36 0.59 0.19
16 37 0.64 0.26
16 38 0.55 0.14
16 39 0.32 0.16
16 40 0.71 0.23
16 41 0.75 0.28
16 42 0.56 0.16
16 43 0.5 0.13
16 44 0.44 0.15
16 45 0.48 0.18
16 46 0.68 0.22
16 47 0.64 0.2
16 48 0.62 0.22
16 49 0.54 0.16
17 18 0.58 0.24
17 19 0.71 0.21
17 20 0.64 0.21
17 21 0.55 0.2
17 22 0.73 0.08
17 23 0.53 0.14
17 24 0.71 0.22
17 25 0.68 0.13
17 26 0.49 0.18
17 27 0.48 0.02
17 28 0.74 0.13
17 29 0.49 0.12
17 30 0.47 0.19
17 31 0.74 0.28
17 32 0.53 0.21
17 33 0.65 0.17
17 34 0.41 0.22
17 35 0.69 0.09
17 36 0.78 0.11
17 37 0.37 0.18
17 38 0.7 0.06
17 39 0.79 0.12
17 40 0.67 0.22
17 41 0.52 0.24
17 42 0.64 0.16
17 43 0.76 0.09
17 44 0.35 0.1
17 45 0.69 0.2
17 46 0.66 0.14
17 47 0.51 0.16
17 48 0.57 0.2
17 49 0.44 0.08
18 19 0.55 0.22
18 20 0.42 0.19
18 21 0.73 0.36
18 22 0.5 0.3
18 23 0.79 0.31
18 24 0.6 0.28
18 25 0.48 0.27
18 26 0.6 0.31
18 27 0.45 0.22
18 28 0.65 0.28
18 29 0.51 0.36
18 30 0.52 0.34
18 31 0.31 0.18
18 32 0.44 0.2
18 33 0.6 0.34
18 34 0.72 0.34
18 35 0.62 0.32
18 36 0.42 0.27
18 37 0.71 0.33
18 38 0.76 0.3
18 39 0.58 0.32
18 40 0.6 0.31
18 41 0.72 0.12
18 42 0.75 0.24
18 43 0.42 0.15
18 44 0.59 0.33
18 45 0.43 0.3
18 46 0.52 0.23
18 47 0.8 0.32
18 48 0.6 0.34
18 49 0.7 0.28
19 20 0.66 0.32
19 21 0.42 0.3
19 22 0.42 0.2
19 23 0.52 0.27
19 24 0.32 0.19
19 25 0.56 0.24
19 26 0.72 0.14
19 27 0.7 0.23
19 28 0.51 0.16
19 29 0.53 0.33
19 30 0.65 0.2
19 31 0.36 0.19
19 32 0.59 0.18
19 33 0.67 0.28
19 34 0.59 0.33
19 35 0.52 0.2
19 36 0.44 0.24
19 37 0.54 0.24
19 38 0.58 0.27
19 39 0.56 0.2
19 40 0.66 0.12
19 41 0.28 0.1
19 42 0.59 0.24
19 43 0.72 0.3
19 44 0.46 0.25
19 45 0.64 0.21
19 46 0.52 0.2
19 47 0.51 0.14
19 48 0.54 0.24
19 49 0.73 0.13
20 21 0.49 0.22
20 22 0.57 0.29
20 23 0.55 0.27
20 24 0.5 0.16
20 25 0.62 0.08
20 26 0.86 0.22
20 27 0.74 0.21
20 28 0.6 0.16
20 29 0.6 0.33
20 30 0.5 0.2
20 31 0.62 0.26
20 32 0.6 0.23
20 33 0.7 0.26
20 34 0.68 0.28
20 35 0.7 0.2
20 36 0.67 0.31
20 37 0.88 0.31
20 38 0.65 0.27
20 39 0.42 0.31
20 40 0.83 0.23
20 41 0.38 0.22
20 42 0.66 0.36
20 43 0.78 0.28
20 44 0.76 0.25
20 45 0.82 0.18
20 46 0.7 0.28
20 47 0.62 0.26
20 48 0.64 0.22
20 49 0.72 0.29
21 22 0.64 0.28
21 23 0.66 0.22
21 24 0.58 0.16
21 25 0.46 0.15
21 26 0.58 0.25
21 27 0.56 0.2
21 28 0.73 0.28
21 29 0.69 0.32
21 30 0.42 0.22
21 31 0.68 0.26
21 32 0.5 0.24
21 33 0.42 0.28
21 34 0.52 0.24
21 35 0.76 0.24
21 36 0.41 0.16
21 37 0.45 0.18
21 38 0.16 0.14
21 39 0.56 0.1
21 40 0.4 0.23
21 41 0.37 0.24
21 42 0.69 0.3
21 43 0.76 0.27
21 44 0.36 0.22
21 45 0.6 0.14
21 46 0.58 0.2
21 47 0.44 0.16
21 48 0.46 0.22
21 49 0.57 0.28
22 23 0.55 0.2
22 24 0.74 0.3
22 25 0.85 0.21
22 26 0.36 0.2
22 27 0.62 0.08
22 28 0.51 0.21
22 29 0.79 0.2
22 30 0.55 0.26
22 31 0.69 0.29
22 32 0.45 0.13
22 33 0.51 0.25
22 34 0.77 0.3
22 35 0.56 0.17
22 36 0.45 0.19
22 37 0.66 0.26
22 38 0.65 0.14
22 39 0.56 0.18
22 40 0.66 0.3
22 41 0.7 0.21
22 42 0.68 0.14
22 43 0.68 0.15
22 44 0.79 0.18
22 45 0.62 0.28
22 46 0.55 0.22
22 47 0.54 0.2
22 48 0.73 0.26
22 49 0.78 0.16
23 24 0.2 0.12
23 25 0.44 0.22
23 26 0.54 0.2
23 27 0.61 0.12
23 28 0.5 0.11
23 29 0.38 0.24
23 30 0.72 0.17
23 31 0.48 0.22
23 32 0.54 0.24
23 33 0.58 0.15
23 34 0.47 0.13
23 35 0.34 0.07
23 36 0.58 0.16
23 37 0.59 0.22
23 38 0.54 0.2
23 39 0.65 0.12
23 40 0.54 0.19
23 41 0.62 0.27
23 42 0.36 0.2
23 43 0.66 0.19
23 44 0.46 0.12
23 45 0.5 0.14
23 46 0.74 0.2
23 47 0.48 0.18
23 48 0.5 0.06
23 49 0.47 0.22
24 25 0.24 0.16
24 26 0.4 0.2
24 27 0.56 0.22
24 28 0.7 0.2
24 29 0.58 0.34
24 30 0.56 0.2
24 31 0.46 0.1
24 32 0.62 0.24
24 33 0.54 0.14
24 34 0.57 0.23
24 35 0.2 0.16
24 36 0.58 0.16
24 37 0.39 0.18
24 38 0.42 0.28
24 39 0.63 0.2
24 40 0.44 0.07
24 41 0.54 0.23
24 42 0.46 0.28
24 43 0.77 0.29
24 44 0.6 0.12
24 45 0.32 0.02
24 46 0.6 0.12
24 47 0.46 0.14
24 48 0.46 0.06
24 49 0.67 0.26
25 26 0.64 0.14
25 27 0.57 0.13
25 28 0.64 0.24
25 29 0.69 0.25
25 30 0.52 0.12
25 31 0.62 0.26
25 32 0.68 0.15
25 33 0.68 0.29
25 34 0.58 0.2
25 35 0.44 0.22
25 36 0.4 0.23
25 37 0.63 0.23
25 38 0.52 0.19
25 39 0.64 0.23
25 40 0.41 0.23
25 41 0.34 0.19
25 42 0.42 0.29
25 43 0.73 0.2
25 44 0.52 0.23
25 45 0.56 0.18
25 46 0.58 0.25
25 47 0.58 0.18
25 48 0.57 0.16
25 49 0.66 0.21
26 27 0.48 0.2
26 28 0.46 0.2
26 29 0.74 0.3
26 30 0.64 0.09
26 31 0.43 0.17
26 32 0.46 0.25
26 33 0.7 0.24
26 34 0.46 0.2
26 35 0.2 0.16
26 36 0.41 0.22
26 37 0.46 0.1
26 38 0.54 0.24
26 39 0.7 0.21
26 40 0.3 0.26
26 41 0.55 0.24
26 42 0.5 0.33
26 43 0.52 0.25
26 44 0.58 0.17
26 45 0.72 0.22
26 46 0.59 0.21
26 47 0.6 0.15
26 48 0.7 0.14
26 49 0.62 0.21
27 28 0.43 0.15
27 29 0.62 0.14
27 30 0.76 0.2
27 31 0.56 0.3
27 32 0.66 0.21
27 33 0.42 0.19
27 34 0.66 0.24
27 35 0.36 0.11
27 36 0.44 0.13
27 37 0.69 0.2
27 38 0.7 0.08
27 39 0.34 0.1
27 40 0.59 0.24
27 41 0.5 0.22
27 42 0.66 0.18
27 43 0.66 0.07
27 44 0.73 0.12
27 45 0.79 0.22
27 46 0.46 0.16
27 47 0.38 0.14
27 48 0.58 0.18
27 49 0.69 0.1
28 29 0.51 0.25
28 30 0.5 0.14
28 31 0.73 0.23
28 32 0.52 0.14
28 33 0.71 0.12
28 34 0.58 0.22
28 35 0.66 0.04
28 36 0.56 0.17
28 37 0.47 0.17
28 38 0.58 0.19
28 39 0.74 0.2
28 40 0.34 0.27
28 41 0.64 0.16
28 42 0.79 0.2
28 43 0.62 0.22
28 44 0.62 0.09
28 45 0.67 0.19
28 46 0.7 0.19
28 47 0.48 0.2
28 48 0.28 0.17
28 49 0.54 0.21
29 30 0.68 0.31
29 31 0.75 0.4
29 32 0.8 0.33
29 33 0.64 0.29
29 34 0.32 0.28
29 35 0.54 0.21
29 36 0.71 0.23
29 37 0.68 0.3
29 38 0.71 0.18
29 39 0.59 0.24
29 40 0.5 0.34
29 41 0.36 0.3
29 42 0.66 0.28
29 43 0.7 0.21
29 44 0.6 0.22
29 45 0.66 0.32
29 46 0.6 0.26
29 47 0.52 0.28
29 48 0.67 0.3
29 49 0.52 0.2
30 31 0.67 0.16
30 32 0.47 0.18
30 33 0.65 0.18
30 34 0.36 0.23
30 35 0.66 0.1
30 36 0.74 0.22
30 37 0.46 0.19
30 38 0.58 0.25
30 39 0.45 0.12
30 40 0.34 0.24
30 41 0.37 0.26
30 42 0.46 0.24
30 43 0.56 0.27
30 44 0.26 0.15
30 45 0.6 0.22
30 46 0.57 0.18
30 47 0.54 0.06
30 48 0.22 0.18
30 49 0.59 0.26
31 32 0.58 0.33
31 33 0.64 0.24
31 34 0.5 0.18
31 35 0.63 0.19
31 36 0.54 0.18
31 37 0.69 0.27
31 38 0.74 0.34
31 39 0.37 0.28
31 40 0.64 0.17
31 41 0.64 0.25
31 42 0.44 0.38
31 43 0.64 0.33
31 44 0.81 0.22
31 45 0.62 0.12
31 46 0.5 0.14
31 47 0.56 0.22
31 48 0.45 0.16
31 49 0.56 0.24
32 33 0.24 0.14
32 34 0.62 0.31
32 35 0.66 0.18
32 36 0.65 0.23
32 37 0.63 0.29
32 38 0.61 0.27
32 39 0.53 0.18
32 40 0.41 0.26
32 41 0.66 0.08
32 42 0.6 0.22
32 43 0.71 0.28
32 44 0.71 0.23
32 45 0.63 0.24
32 46 0.53 0.19
32 47 0.52 0.12
32 48 0.39 0.18
32 49 0.62 0.24
33 34 0.54 0.26
33 35 0.74 0.08
33 36 0.41 0.2
33 37 0.67 0.29
33 38 0.58 0.23
33 39 0.29 0.18
33 40 0.65 0.21
33 41 0.68 0.22
33 42 0.52 0.14
33 43 0.77 0.26
33 44 0.58 0.13
33 45 0.81 0.16
33 46 0.59 0.23
33 47 0.54 0.24
33 48 0.43 0.2
33 49 0.77 0.25
34 35 0.66 0.18
34 36 0.67 0.17
34 37 0.59 0.3
34 38 0.64 0.28
34 39 0.58 0.25
34 40 0.52 0.21
34 41 0.68 0.24
34 42 0.56 0.33
34 43 0.69 0.31
34 44 0.31 0.23
34 45 0.65 0.21
34 46 0.61 0.13
34 47 0.71 0.27
34 48 0.35 0.19
34 49 0.23 0.2
35 36 0.38 0.16
35 37 0.59 0.21
35 38 0.6 0.15
35 39 0.62 0.16
35 40 0.5 0.23
35 41 0.66 0.2
35 42 0.3 0.22
35 43 0.6 0.18
35 44 0.4 0.05
35 45 0.52 0.15
35 46 0.56 0.15
35 47 0.42 0.16
35 48 0.66 0.13
35 49 0.74 0.17
36 37 0.5 0.26
36 38 0.57 0.17
36 39 0.32 0.19
36 40 0.57 0.12
36 41 0.52 0.15
36 42 0.56 0.22
36 43 0.5 0.2
36 44 0.49 0.14
36 45 0.64 0.14
36 46 0.18 0.04
36 47 0.5 0.18
36 48 0.72 0.22
36 49 0.6 0.19
37 38 0.61 0.24
37 39 0.64 0.28
37 40 0.6 0.18
37 41 0.74 0.21
37 42 0.62 0.34
37 43 0.58 0.27
37 44 0.5 0.26
37 45 0.56 0.2
37 46 0.32 0.22
37 47 0.58 0.25
37 48 0.24 0.24
37 49 0.66 0.26
38 39 0.72 0.18
38 40 0.24 0.22
38 41 0.53 0.3
38 42 0.53 0.22
38 43 0.74 0.15
38 44 0.52 0.16
38 45 0.72 0.26
38 46 0.42 0.2
38 47 0.6 0.22
38 48 0.62 0.26
38 49 0.41 0.14
39 40 0.79 0.23
39 41 0.78 0.26
39 42 0.81 0.24
39 43 0.8 0.17
39 44 0.49 0.21
39 45 0.52 0.22
39 46 0.5 0.15
39 47 0.72 0.06
39 48 0.58 0.18
39 49 0.74 0.2
40 41 0.71 0.19
40 42 0.52 0.33
40 43 0.67 0.31
40 44 0.53 0.18
40 45 0.7 0.09
40 46 0.54 0.08
40 47 0.71 0.18
40 48 0.56 0.13
40 49 0.51 0.23
41 42 0.46 0.14
41 43 0.74 0.23
41 44 0.63 0.21
41 45 0.53 0.21
41 46 0.6 0.11
41 47 0.24 0.2
41 48 0.59 0.26
41 49 0.64 0.16
42 43 0.71 0.25
42 44 0.63 0.26
42 45 0.42 0.3
42 46 0.38 0.25
42 47 0.56 0.18
42 48 0.68 0.26
42 49 0.76 0.24
43 44 0.62 0.19
43 45 0.58 0.29
43 46 0.68 0.23
43 47 0.75 0.21
43 48 0.34 0.25
43 49 0.74 0.17
44 45 0.34 0.1
44 46 0.31 0.1
44 47 0.67 0.21
44 48 0.46 0.18
44 49 0.54 0.18
45 46 0.65 0.1
45 47 0.66 0.16
45 48 0.62 0.08
45 49 0.73 0.28
46 47 0.64 0.14
46 48 0.56 0.18
46 49 0.44 0.22
47 48 0.54 0.2
47 49 0.54 0.24
48 49 0.42 0.23
